NAME: Tnm91
COMMENT: Recalculated optimal tour for Tnm91, using concorde got a tour of length 1228726.0
TYPE: TOUR
DIMENSION: 91
TOUR_SECTION:
1
69
66
71
63
60
74
77
57
54
51
48
45
42
39
36
80
83
86
89
91
90
88
85
82
79
33
30
27
24
21
18
15
12
76
73
9
6
3
68
65
70
62
59
56
53
50
47
44
41
38
35
32
29
26
23
20
17
14
87
84
81
78
75
11
8
5
72
2
67
64
61
58
55
52
49
46
43
40
37
34
31
28
25
22
19
16
13
10
7
4 
-1
EOF
